(declare-const A Int) (declare-const B Int) (declare-const C Int) (declare-const Menor Int) (assert (= Menor C))(declare-const Inter Int) (assert (= Inter B))(declare-const Maior Int) (assert (= Maior A))(declare-const Menor Int) (assert (= Menor B))(declare-const Inter Int) (assert (= Inter C))(declare-const Maior Int) (assert (= Maior A))(declare-const Menor Int) (assert (= Menor C))(declare-const Inter Int) (assert (= Inter A))(declare-const Maior Int) (assert (= Maior B))(declare-const Menor Int) (assert (= Menor A))(declare-const Inter Int) (assert (= Inter C))(declare-const Maior Int) (assert (= Maior B))(declare-const Menor Int) (assert (= Menor B))(declare-const Inter Int) (assert (= Inter A))(declare-const Maior Int) (assert (= Maior C))(declare-const Menor Int) (assert (= Menor A))(declare-const Inter Int) (assert (= Inter B))(declare-const Maior Int) (assert (= Maior C)) (assert (and ( and ( < A B) ( < A C))  ( > B C)))(check-sat) (get-model)
